(set-logic QF_S)
(declare-fun x () String)
(declare-fun y () String)
(declare-fun z () Int)
(assert (not (= (str.prefixof y (str.replace "A" x y)) (str.prefixof x (str.replace "A" y x)))))
(check-sat)
